10J3M/DAT/10J3MUNX-15.dat
10 3
11.8258 3.4389
26.239 5.1224
35.5306 5.9608
24.7603 4.976
1.9463 1.3951
6.6043 2.5699
33.9827 5.8295
2.7669 1.6634
4.3927 2.0959
4.2042 2.0504
35.1023