10J3M/SOL/10J3MUNX-15.sol
solution status: optimal solution found
objective value:                             104.5351
x#1#1                                               1 	(obj:0)
x#2#2                               0.775537652426083 	(obj:0)
x#2#3                               0.224462347573917 	(obj:0)
x#3#3                                               1 	(obj:0)
x#4#1                               0.773707016613258 	(obj:0)
x#4#2                               0.226292983386742 	(obj:0)
x#5#1                                               1 	(obj:0)
x#6#1                                               1 	(obj:0)
x#7#2                                               1 	(obj:0)
x#8#1                                               1 	(obj:0)
x#9#3                                               1 	(obj:0)
x#10#2                                              1 	(obj:0)
z                                            104.5351 	(obj:1)
